19801
16077
4632
29863
2668
14517
8005
9496
32651
13852
9602
14636
3909
2183
62
27319
18306
12491
1168
4583
27312
27371
6529
3042
18027
18012
17535
1717
31321
1315
31040
3482
11446
301
19679
31085
31038
23851
21331
9458
7275
30056
13677
4456
20949
8095
7858
25046
25136
28092
23923
15629
12529
19416
31036
30345
11191
398
19619
27795
20015
10517
19377
31840
2727
6865
17070
26072
24517
7390
17634
32632
8276
7399
7228
24219
11822
433
17402
27220
22421
32266
25484
7976
4658
19855
1135
12826
23062
30625
32756
4563
14860
32010
22390
12626
9475
27109
28581
19781
